p edge 70 420
e 1 22
e 1 40
e 1 46
e 1 59
e 1 61
e 1 69
e 2 3
e 2 6
e 2 8
e 2 30
e 2 35
e 2 38
e 3 4
e 3 20
e 3 25
e 3 48
e 3 50
e 3 64
e 4 3
e 4 10
e 4 23
e 4 26
e 4 48
e 4 61
e 5 21
e 5 24
e 5 32
e 5 41
e 5 67
e 5 68
e 6 23
e 6 24
e 6 27
e 6 32
e 6 57
e 6 63
e 7 8
e 7 23
e 7 28
e 7 34
e 7 48
e 7 58
e 8 7
e 8 41
e 8 46
e 8 57
e 8 65
e 8 69
e 9 7
e 9 26
e 9 46
e 9 55
e 9 60
e 9 61
e 10 19
e 10 34
e 10 46
e 10 50
e 10 51
e 10 57
e 11 7
e 11 17
e 11 43
e 11 44
e 11 57
e 11 62
e 12 18
e 12 24
e 12 29
e 12 37
e 12 51
e 12 68
e 13 11
e 13 28
e 13 30
e 13 41
e 13 53
e 13 66
e 14 5
e 14 10
e 14 16
e 14 18
e 14 20
e 14 55
e 15 3
e 15 4
e 15 11
e 15 22
e 15 48
e 15 68
e 16 6
e 16 12
e 16 34
e 16 37
e 16 41
e 16 70
e 17 36
e 17 49
e 17 52
e 17 59
e 17 59
e 17 66
e 18 29
e 18 30
e 18 38
e 18 39
e 18 56
e 18 70
e 19 12
e 19 23
e 19 27
e 19 43
e 19 44
e 19 68
e 20 10
e 20 35
e 20 43
e 20 46
e 20 54
e 20 58
e 21 11
e 21 15
e 21 39
e 21 46
e 21 47
e 21 63
e 22 1
e 22 11
e 22 32
e 22 43
e 22 43
e 22 45
e 23 46
e 23 49
e 23 51
e 23 51
e 23 62
e 23 66
e 24 3
e 24 18
e 24 32
e 24 53
e 24 60
e 24 68
e 25 17
e 25 20
e 25 27
e 25 41
e 25 60
e 25 69
e 26 6
e 26 7
e 26 16
e 26 27
e 26 51
e 26 70
e 27 2
e 27 23
e 27 37
e 27 42
e 27 42
e 27 59
e 28 12
e 28 15
e 28 19
e 28 34
e 28 42
e 28 67
e 29 13
e 29 33
e 29 48
e 29 50
e 29 51
e 29 57
e 30 15
e 30 25
e 30 32
e 30 40
e 30 50
e 30 56
e 31 15
e 31 17
e 31 22
e 31 42
e 31 62
e 31 70
e 32 1
e 32 14
e 32 19
e 32 55
e 32 59
e 32 67
e 33 14
e 33 34
e 33 38
e 33 50
e 33 52
e 33 67
e 34 5
e 34 21
e 34 25
e 34 29
e 34 30
e 34 50
e 35 19
e 35 36
e 35 51
e 35 60
e 35 60
e 35 62
e 36 18
e 36 31
e 36 37
e 36 46
e 36 62
e 36 68
e 37 17
e 37 21
e 37 31
e 37 32
e 37 40
e 37 44
e 38 8
e 38 20
e 38 28
e 38 36
e 38 45
e 38 69
e 39 32
e 39 37
e 39 41
e 39 60
e 39 62
e 39 69
e 40 2
e 40 25
e 40 27
e 40 52
e 40 53
e 40 63
e 41 14
e 41 26
e 41 34
e 41 43
e 41 50
e 41 66
e 42 3
e 42 12
e 42 29
e 42 34
e 42 50
e 42 69
e 43 4
e 43 7
e 43 34
e 43 53
e 43 64
e 43 69
e 44 2
e 44 7
e 44 20
e 44 38
e 44 43
e 44 54
e 45 10
e 45 15
e 45 20
e 45 26
e 45 32
e 45 36
e 46 1
e 46 15
e 46 40
e 46 40
e 46 43
e 46 49
e 47 21
e 47 22
e 47 30
e 47 46
e 47 50
e 47 64
e 48 2
e 48 13
e 48 27
e 48 27
e 48 40
e 48 42
e 49 8
e 49 15
e 49 16
e 49 48
e 49 55
e 49 62
e 50 1
e 50 17
e 50 26
e 50 32
e 50 48
e 50 58
e 51 7
e 51 8
e 51 26
e 51 26
e 51 59
e 51 69
e 52 1
e 52 18
e 52 22
e 52 38
e 52 56
e 52 67
e 53 31
e 53 37
e 53 56
e 53 57
e 53 60
e 53 61
e 54 1
e 54 8
e 54 10
e 54 34
e 54 41
e 54 56
e 55 14
e 55 15
e 55 34
e 55 58
e 55 59
e 55 61
e 56 14
e 56 21
e 56 24
e 56 29
e 56 36
e 56 50
e 57 24
e 57 32
e 57 35
e 57 36
e 57 50
e 57 69
e 58 4
e 58 10
e 58 12
e 58 22
e 58 30
e 58 70
e 59 2
e 59 24
e 59 28
e 59 33
e 59 34
e 59 49
e 60 15
e 60 49
e 60 57
e 60 57
e 60 59
e 60 64
e 61 7
e 61 13
e 61 36
e 61 47
e 61 54
e 61 69
e 62 12
e 62 25
e 62 29
e 62 31
e 62 55
e 62 60
e 63 3
e 63 7
e 63 18
e 63 28
e 63 58
e 63 69
e 64 4
e 64 13
e 64 26
e 64 31
e 64 59
e 64 63
e 65 4
e 65 11
e 65 26
e 65 50
e 65 57
e 65 68
e 66 18
e 66 22
e 66 23
e 66 29
e 66 53
e 66 69
e 67 7
e 67 23
e 67 48
e 67 49
e 67 52
e 67 57
e 68 10
e 68 12
e 68 14
e 68 47
e 68 54
e 68 57
e 69 6
e 69 28
e 69 43
e 69 46
e 69 70
e 69 70
e 70 1
e 70 19
e 70 22
e 70 48
e 70 57
e 70 68
